&bands 
    prefix = 'magnesium',
    outdir = './tmp/',
    filband = 'band.dat'
/
