 &control
    calculation = 'scf',
    verbosity = 'high'
    prefix = 'magnesium'
    outdir = './tmp/'
    pseudo_dir = '../pseudos/'
 
 /
 &system
    ibrav =  2, 
    celldm(1) = 6.708528, 
    nat =  1, 
    ntyp = 1,
    ecutwfc = 50.0,
    occupations = 'smearing',
    smearing = 'marzari-vanderbilt',
    degauss = 0.02
    ecutrho = 450
    nbnd = 16
 /
 &electrons
    mixing_beta = 0.7
 /
 &ions
 /
 &cell
 /
ATOMIC_SPECIES
 Mg 24.305  Mg.pbe-n-kjpaw_psl.0.3.0.UPF

ATOMIC_POSITIONS (alat)
 Mg 0.0 0.0 0.0


K_POINTS (automatic)
  12 12 12 0 0 0

